Gurobi Optimizer version 9.1.2 build v9.1.2rc0 (linux64)
Thread count: 36 physical cores, 72 logical processors, using up to 32 threads
Optimize a model with 12 rows, 57 columns and 590 nonzeros
Model fingerprint: 0xf32eec78
Model has 47 quadratic constraints
Coefficient statistics:
  Matrix range     [2e-05, 3e+00]
  QMatrix range    [1e+00, 1e+00]
  QLMatrix range   [1e+00, 1e+00]
  Objective range  [8e-03, 7e-01]
  Bounds range     [1e+00, 1e+00]
  RHS range        [1e+00, 1e+00]
Presolve removed 9 rows and 0 columns

Continuous model is non-convex -- solving as a MIP.

Presolve removed 9 rows and 0 columns
Presolve time: 0.00s
Presolved: 189 rows, 57 columns, 443 nonzeros
Presolved model has 47 bilinear constraint(s)
Variable types: 57 continuous, 0 integer (0 binary)

Root relaxation: objective -1.743721e+00, 44 iterations, 0.00 seconds

    Nodes    |    Current Node    |     Objective Bounds      |     Work
 Expl Unexpl |  Obj  Depth IntInf | Incumbent    BestBd   Gap | It/Node Time

     0     0   -1.74372    0   38          -   -1.74372      -     -    0s
H    0     0                       0.6147548   -1.74372   384%     -    0s
     0     0   -1.64739    0    1    0.61475   -1.64739   368%     -    0s
H    0     0                      -1.6450460   -1.64739  0.14%     -    0s
     0     0     cutoff    0        -1.64505   -1.64505  0.00%     -    0s

Cutting planes:
  RLT: 25
  BQP: 3

Explored 1 nodes (76 simplex iterations) in 0.01 seconds
Thread count was 32 (of 72 available processors)

Solution count 2: -1.64505 0.614755 
No other solutions better than -1.64505

Optimal solution found (tolerance 1.00e-04)
Best objective -1.645045978473e+00, best bound -1.645045978473e+00, gap 0.0000%

User-callback calls 78, time in user-callback 0.00 sec
Gurobi Optimizer version 9.1.2 build v9.1.2rc0 (linux64)
Thread count: 36 physical cores, 72 logical processors, using up to 32 threads
Optimize a model with 12 rows, 55 columns and 570 nonzeros
Model fingerprint: 0xd37c349b
Model has 45 quadratic constraints
Coefficient statistics:
  Matrix range     [1e-04, 1e+00]
  QMatrix range    [1e+00, 1e+00]
  QLMatrix range   [1e+00, 1e+00]
  Objective range  [4e-02, 7e-01]
  Bounds range     [1e+00, 1e+00]
  RHS range        [1e+00, 1e+00]
Presolve removed 9 rows and 0 columns

Continuous model is non-convex -- solving as a MIP.

Presolve removed 9 rows and 0 columns
Presolve time: 0.00s
Presolved: 183 rows, 55 columns, 432 nonzeros
Presolved model has 45 bilinear constraint(s)
Variable types: 55 continuous, 0 integer (0 binary)

Root relaxation: objective -3.124567e+00, 42 iterations, 0.00 seconds

    Nodes    |    Current Node    |     Objective Bounds      |     Work
 Expl Unexpl |  Obj  Depth IntInf | Incumbent    BestBd   Gap | It/Node Time

     0     0   -3.12457    0   10          -   -3.12457      -     -    0s
H    0     0                      -2.9563342   -3.12457  5.69%     -    0s
     0     0   -3.04063    0   28   -2.95633   -3.04063  2.85%     -    0s
     0     0   -3.03063    0    3   -2.95633   -3.03063  2.51%     -    0s
H    0     0                      -3.0245527   -3.03063  0.20%     -    0s
     0     0   -3.02857    0    3   -3.02455   -3.02857  0.13%     -    0s
H    0     0                      -3.0275014   -3.02857  0.04%     -    0s
H    0     0                      -3.0275141   -3.02857  0.03%     -    0s
     0     2   -3.02857    0    3   -3.02751   -3.02857  0.03%     -    0s

Cutting planes:
  RLT: 13
  BQP: 6

Explored 7 nodes (131 simplex iterations) in 0.07 seconds
Thread count was 32 (of 72 available processors)

Solution count 4: -3.02751 -3.0275 -3.02455 -2.95633 

Optimal solution found (tolerance 1.00e-04)
Best objective -3.027514051758e+00, best bound -3.027785315088e+00, gap 0.0090%

User-callback calls 125, time in user-callback 0.00 sec



objective value: -3.027514051758481
objective bound: -3.027785315088433
x_opt: [1.0, 1.0, 0.9556954100341315, 0.09821761364403242, 0.0, 1.0, 0.14540446715338817, 1.0, 1.0, 1.0]
GUROBI solution time: 0.0717768669128418

